; benchmark generated from python API
(set-info :status unknown)
(declare-datatypes ((RealState 0)) (((RMk1 (rval1 Real)) (RMk2 (rval2 Real)))))
 (assert
 (exists ((|v11:0_st| RealState) (val!6068 Real) )(exists ((|v10:1_st| RealState) (val!6069 Real) )(exists ((|v9:2_st| RealState) (val!6070 Real) )(exists ((|v8:3_st| RealState) (val!6071 Real) )(forall ((|v7:4| Real) )(forall ((|v6:5| Real) )(forall ((|v5:6| Real) )(forall ((|v4:7| Real) )(exists ((|v3:8_st| RealState) (val!6072 Real) )(exists ((|v2:9_st| RealState) (val!6073 Real) )(exists ((|v1:10_st| RealState) (val!6074 Real) )(exists ((|v0:11_st| RealState) (val!6075 Real) )(let ((?x1477 (- 5.0)))
 (let ((?x2866 (* 7.0 |v5:6|)))
 (let ((?x2966 (+ (+ (+ (* 6.0 |v4:7|) (* 10.0 |v7:4|)) (* (- 11.0) (rval2 |v1:10_st|))) ?x2866)))
 (let ((?x2496 (+ (+ (* (- 14.0) (rval2 |v1:10_st|)) (* 4.0 |v4:7|)) (* 6.0 (rval2 |v8:3_st|)))))
 (let (($x3030 (and (<= (+ ?x2496 (* (- 10.0) (rval2 |v8:3_st|))) 15.0) (<= ?x2966 ?x1477))))
 (let ((?x1633 (- 7.0)))
 (let ((?x3071 (rval2 |v8:3_st|)))
 (let ((?x1467 (* 10.0 ?x3071)))
 (let ((?x3150 (+ (+ (+ (* (- 3.0) (rval2 |v9:2_st|)) (* 2.0 (rval2 |v0:11_st|))) ?x1467) (* (- 1.0) (rval2 |v10:1_st|)))))
 (let ((?x2669 (* 15.0 |v5:6|)))
 (let ((?x2087 (+ (+ (+ (* 11.0 |v5:6|) (* 9.0 |v4:7|)) (* (- 15.0) |v6:5|)) ?x2669)))
 (let ((?x220 (rval2 |v11:0_st|)))
 (let ((?x2096 (- 10.0)))
 (let ((?x1331 (* ?x2096 ?x220)))
 (let ((?x1629 (+ (+ (+ (* 7.0 (rval2 |v9:2_st|)) (* (- 9.0) (rval2 |v3:8_st|))) ?x1331) (* (- 11.0) (rval2 |v0:11_st|)))))
 (let ((?x1642 (- 18.0)))
 (let ((?x2387 (- 1.0)))
 (let ((?x1380 (* ?x2387 |v6:5|)))
 (let ((?x3492 (+ (+ (+ (* (- 14.0) ?x220) (* (- 19.0) ?x220)) (* 2.0 |v7:4|)) ?x1380)))
 (let ((?x3044 (- 20.0)))
 (let ((?x3138 (rval2 |v1:10_st|)))
 (let ((?x2879 (* 13.0 ?x3138)))
 (let ((?x2497 (+ (+ (+ (* (- 6.0) (rval2 |v9:2_st|)) (* 7.0 |v7:4|)) ?x2879) (* (- 12.0) ?x3071))))
 (let ((?x2250 (rval2 |v10:1_st|)))
 (let ((?x618 (* ?x2096 ?x2250)))
 (let ((?x2648 (- 8.0)))
 (let ((?x1281 (* ?x2648 |v4:7|)))
 (let (($x3165 (<= (+ (+ (+ (* (- 16.0) |v5:6|) (* (- 14.0) |v4:7|)) ?x1281) ?x618) 6.0)))
 (let (($x1807 (and (and (and $x3165 (<= ?x2497 ?x3044)) (and (<= ?x3492 ?x1642) (<= ?x1629 ?x1633))) (and (and (<= ?x2087 6.0) (<= ?x3150 ?x1633)) $x3030))))
 (let ((?x1319 (- 13.0)))
 (let ((?x930 (* ?x1319 |v7:4|)))
 (let ((?x273 (rval2 |v2:9_st|)))
 (let ((?x2282 (* 9.0 ?x273)))
 (let (($x1011 (<= (+ (+ (+ (* 15.0 |v7:4|) (* 10.0 (rval2 |v0:11_st|))) ?x2282) ?x930) ?x2648)))
 (let ((?x2946 (- 12.0)))
 (let ((?x3147 (rval2 |v9:2_st|)))
 (let ((?x1667 (* ?x1642 ?x3147)))
 (let (($x1012 (<= (+ (+ (+ (* 12.0 (rval2 |v3:8_st|)) |v6:5|) (* (- 14.0) ?x3138)) ?x1667) ?x2946)))
 (let ((?x2503 (- 3.0)))
 (let ((?x2255 (+ (+ (+ ?x618 (* (- 6.0) |v6:5|)) (* (- 17.0) ?x3147)) (* ?x2946 |v6:5|))))
 (let ((?x2912 (+ (+ (+ (* ?x2387 (rval2 |v0:11_st|)) (* 4.0 |v7:4|)) (* 20.0 |v7:4|)) (* 0.0 (rval2 |v3:8_st|)))))
 (let ((?x2577 (+ (+ (+ (* (- 16.0) ?x2250) (* ?x2946 (rval2 |v0:11_st|))) (* 8.0 ?x3147)) (* ?x1319 ?x3138))))
 (let ((?x1709 (- 16.0)))
 (let ((?x599 (- 6.0)))
 (let ((?x3155 (* ?x599 ?x3138)))
 (let (($x1246 (<= (+ (+ (+ (* 17.0 |v4:7|) (* 16.0 ?x3071)) (* 7.0 |v6:5|)) ?x3155) ?x1709)))
 (let ((?x1991 (+ (+ (+ (* 16.0 ?x273) (* ?x1319 ?x273)) (* 15.0 (rval2 |v3:8_st|))) (* ?x2096 ?x273))))
 (let ((?x2397 (rval2 |v3:8_st|)))
 (let ((?x251 (* 15.0 ?x2397)))
 (let ((?x2543 (+ (+ (+ (* (- 15.0) |v6:5|) (* 5.0 ?x3138)) (* 4.0 ?x273)) ?x251)))
 (let (($x1789 (and (and (<= ?x2543 ?x2503) (<= ?x1991 5.0)) (and $x1246 (<= ?x2577 20.0)))))
 (let (($x156 (and $x1789 (and (and (<= ?x2912 5.0) (<= ?x2255 ?x2503)) (and $x1012 $x1011)))))
 (let ((?x3079 (+ (+ (+ (* ?x2648 ?x220) (* (- 19.0) ?x2250)) ?x3147) (* (- 9.0) |v4:7|))))
 (let (($x2125 (<= (+ (+ (+ (* ?x2946 ?x3147) (* ?x599 ?x2250)) ?x1331) (* (- 17.0) |v4:7|)) 0.0)))
 (let ((?x965 (* 20.0 |v4:7|)))
 (let ((?x1811 (+ (+ (+ (* ?x1642 (rval2 |v0:11_st|)) (* 20.0 ?x273)) (* 6.0 ?x3147)) ?x965)))
 (let ((?x721 (rval2 |v0:11_st|)))
 (let ((?x2367 (* 15.0 ?x721)))
 (let (($x517 (<= (+ (+ (+ (* ?x1642 ?x3071) (* ?x2503 |v7:4|)) (* 8.0 ?x220)) ?x2367) 20.0)))
 (let ((?x3327 (* 11.0 |v6:5|)))
 (let (($x2112 (<= (+ (+ (+ (* (- 14.0) ?x3138) (* ?x1709 |v5:6|)) (* 8.0 ?x2397)) ?x3327) 4.0)))
 (let ((?x260 (+ (+ (+ (* 6.0 |v6:5|) (* 11.0 ?x220)) (* 5.0 ?x3147)) (* (- 2.0) ?x2397))))
 (let ((?x1905 (* 12.0 ?x721)))
 (let (($x140 (<= (+ (+ (+ (* 7.0 ?x721) (* 7.0 ?x273)) (* 13.0 ?x3147)) ?x1905) 9.0)))
 (let (($x245 (<= (+ (+ (+ (* 16.0 ?x3071) (* (- 2.0) ?x3147)) ?x2669) (* ?x2503 |v4:7|)) 14.0)))
 (let (($x1969 (and (and (and $x245 $x140) (and (<= ?x260 ?x1477) $x2112)) (and (and $x517 (<= ?x1811 ?x2503)) (and $x2125 (<= ?x3079 ?x2946))))))
 (let (($x952 (<= (+ (+ (+ (* ?x2387 ?x273) ?x251) (* ?x2946 ?x3147)) (* 4.0 |v6:5|)) 10.0)))
 (let ((?x2661 (* 3.0 |v7:4|)))
 (let (($x2689 (<= (+ (+ (+ (* 12.0 ?x3138) (* ?x2096 ?x721)) (* 11.0 ?x3071)) ?x2661) 7.0)))
 (let ((?x568 (* 16.0 |v5:6|)))
 (let ((?x914 (+ (+ (+ (* 6.0 ?x721) (* 18.0 ?x3071)) (* (- 4.0) ?x3071)) ?x568)))
 (let (($x1258 (<= (+ (+ (+ |v4:7| (* ?x2946 ?x3138)) (* ?x1477 ?x2250)) (* 20.0 ?x2397)) ?x1633)))
 (let ((?x1419 (* 0.0 |v6:5|)))
 (let (($x2721 (<= (+ (+ (+ (* 8.0 ?x2397) (* 20.0 ?x2397)) (* ?x599 |v4:7|)) ?x1419) 0.0)))
 (let ((?x1415 (- 15.0)))
 (let (($x2560 (<= (+ (+ (+ (* ?x1415 |v5:6|) (* 7.0 ?x3138)) (* ?x1415 ?x2250)) ?x273) ?x1415)))
 (let ((?x498 (* 6.0 |v6:5|)))
 (let (($x1282 (<= (+ (+ (+ (* ?x2387 ?x220) (* ?x1709 |v4:7|)) (* 4.0 ?x220)) ?x498) ?x1415)))
 (let (($x2786 (and $x1282 (<= (+ (+ (+ ?x1419 (* ?x2503 ?x2397)) ?x721) (* 20.0 ?x3147)) 12.0))))
 (let (($x72 (and (and $x2786 (or $x2560 $x2721)) (and (and $x1258 (<= ?x914 ?x3044)) (and $x2689 $x952)))))
 (let ((?x836 (* 3.0 |v5:6|)))
 (let (($x1024 (<= (+ (+ (+ (* 16.0 ?x2397) (* ?x2387 |v7:4|)) (* (- 9.0) ?x721)) ?x836) 5.0)))
 (let (($x3188 (and $x1024 (<= (+ (+ (+ (* 11.0 ?x220) ?x1905) (* 19.0 ?x3071)) ?x1667) 5.0))))
 (let ((?x2764 (* 15.0 ?x3147)))
 (let (($x440 (<= (+ (+ (+ (* 17.0 |v6:5|) (* 16.0 ?x2397)) (* ?x2648 ?x2397)) ?x2764) ?x2648)))
 (let ((?x3010 (+ (+ (+ (* 9.0 ?x3147) (* 10.0 |v4:7|)) (* 6.0 ?x3147)) (* ?x3044 ?x3147))))
 (let ((?x40 (+ (+ (+ (* ?x2096 ?x2397) (* (- 4.0) |v7:4|)) (* 9.0 ?x2250)) (* 4.0 ?x3138))))
 (let (($x2423 (<= (+ (+ (+ (* 8.0 |v5:6|) (* 8.0 ?x3147)) ?x3155) (* 0.0 |v4:7|)) 7.0)))
 (let ((?x2752 (* 15.0 ?x3071)))
 (let (($x1877 (<= (+ (+ (+ (* ?x2387 ?x3147) (* ?x2387 ?x3138)) (* 10.0 ?x721)) ?x2752) ?x2387)))
 (let ((?x1035 (+ (+ (+ (* (- 4.0) ?x273) (* ?x2096 |v5:6|)) (* 14.0 ?x3071)) (* 3.0 ?x3071))))
 (let (($x1657 (and (and (or (<= ?x1035 0.0) $x1877) (and $x2423 (<= ?x40 ?x2503))) (and (and (<= ?x3010 9.0) $x440) $x3188))))
 (let ((?x2345 (+ (+ (+ (* ?x1319 ?x3147) (* ?x1642 ?x721)) (* (- 14.0) ?x3071)) (* 20.0 ?x3138))))
 (let ((?x673 (* 5.0 ?x721)))
 (let ((?x3477 (+ (+ (+ (* (- 19.0) |v5:6|) (* 18.0 |v5:6|)) (* 13.0 ?x3147)) ?x673)))
 (let ((?x542 (* ?x1319 |v5:6|)))
 (let ((?x1303 (+ (+ (+ (* 9.0 ?x721) (* (- 19.0) |v6:5|)) (* 19.0 ?x721)) ?x542)))
 (let ((?x1816 (* 3.0 ?x3147)))
 (let (($x3111 (<= (+ (+ (+ (* 5.0 |v5:6|) ?x1419) (* (- 9.0) ?x3147)) ?x1816) ?x2648)))
 (let ((?x1166 (+ (+ (+ (* (- 2.0) ?x220) (* ?x2946 ?x3147)) (* ?x1319 ?x721)) (* (- 2.0) |v4:7|))))
 (let ((?x2829 (* 19.0 ?x220)))
 (let ((?x256 (+ (+ (+ (* (- 11.0) |v6:5|) (* 15.0 |v7:4|)) (* (- 2.0) |v6:5|)) ?x2829)))
 (let (($x3397 (<= (+ (+ (+ (* ?x1415 |v5:6|) (* ?x3044 ?x273)) (* 9.0 |v6:5|)) ?x2661) ?x1642)))
 (let ((?x2072 (- 14.0)))
 (let ((?x1791 (* ?x1319 ?x3147)))
 (let (($x111 (<= (+ (+ (+ (* (- 2.0) ?x273) (* ?x599 |v4:7|)) (* 3.0 ?x721)) ?x1791) ?x2072)))
 (let (($x2191 (and (and (and $x111 $x3397) (and (<= ?x256 17.0) (<= ?x1166 8.0))) (or (and $x3111 (<= ?x1303 ?x2946)) (and (<= ?x3477 ?x2096) (<= ?x2345 ?x1633))))))
 (let ((?x496 (- 19.0)))
 (let ((?x3000 (* ?x496 |v6:5|)))
 (let (($x1394 (<= (+ (+ (+ ?x930 (* 8.0 ?x3071)) (* (- 11.0) |v7:4|)) ?x3000) ?x2072)))
 (let ((?x2516 (* 3.0 |v6:5|)))
 (let (($x402 (<= (+ (+ (+ (* (- 2.0) ?x3138) (* ?x496 |v5:6|)) (* ?x1709 ?x3147)) ?x2516) 11.0)))
 (let ((?x2749 (- 17.0)))
 (let ((?x2637 (* 8.0 |v5:6|)))
 (let ((?x970 (+ (+ (+ (* (- 4.0) |v4:7|) (* 6.0 |v5:6|)) (* 11.0 |v5:6|)) ?x2637)))
 (let (($x352 (and (<= ?x970 ?x2072) (<= (+ (+ (+ ?x498 |v7:4|) (* 18.0 ?x721)) (* 12.0 |v7:4|)) ?x2749))))
 (let ((?x2231 (* 5.0 |v5:6|)))
 (let (($x2652 (<= (+ (+ (+ (* 20.0 |v6:5|) (* ?x1477 ?x273)) (* 5.0 ?x220)) ?x2231) 13.0)))
 (let (($x3362 (<= (+ (+ (+ ?x965 (* ?x599 |v7:4|)) (* ?x1709 |v6:5|)) (* ?x2648 ?x2250)) 14.0)))
 (let ((?x2399 (* 8.0 ?x3147)))
 (let ((?x2218 (+ (+ (+ (* 19.0 ?x2397) (* 11.0 ?x721)) (* (- 2.0) ?x3147)) ?x2399)))
 (let ((?x71 (- 9.0)))
 (let ((?x3426 (* ?x71 ?x721)))
 (let (($x1855 (<= (+ (+ (+ (* ?x2096 |v5:6|) (* ?x2749 |v4:7|)) (* ?x2749 ?x273)) ?x3426) ?x71)))
 (let (($x746 (and (and (and $x1855 (<= ?x2218 7.0)) (and $x3362 $x2652)) (and $x352 (and $x402 $x1394)))))
 (let ((?x2099 (+ (+ (+ (* ?x1319 |v4:7|) (* 3.0 ?x2250)) (* ?x1709 ?x721)) (* 2.0 ?x2250))))
 (let (($x1529 (<= (+ (+ (+ ?x568 (* 8.0 ?x2250)) (* 3.0 ?x220)) (* ?x1415 ?x721)) 16.0)))
 (let (($x1375 (<= (+ (+ (+ (* (- 11.0) ?x3071) (* ?x599 |v4:7|)) ?x1816) (* 14.0 |v4:7|)) 5.0)))
 (let (($x3321 (<= (+ (+ (+ (* ?x3044 ?x721) (* 19.0 |v6:5|)) (* ?x2648 ?x3071)) ?x2516) 2.0)))
 (let ((?x961 (- 2.0)))
 (let ((?x490 (* ?x961 |v5:6|)))
 (let (($x112 (<= (+ (+ (+ (* 12.0 ?x3071) (* ?x3044 ?x2250)) (* 2.0 ?x3147)) ?x490) ?x2072)))
 (let ((?x1324 (* ?x2387 ?x721)))
 (let (($x1568 (<= (+ (+ (+ (* 9.0 |v6:5|) (* ?x1477 ?x3147)) (* ?x1477 ?x2397)) ?x1324) ?x2503)))
 (let (($x2851 (<= (+ (+ (+ (* ?x1642 ?x2250) (* 19.0 |v5:6|)) (* 14.0 |v7:4|)) ?x251) 11.0)))
 (let ((?x141 (* 3.0 ?x2250)))
 (let (($x1631 (<= (+ (+ (+ (* ?x1642 ?x3071) (* 12.0 ?x2250)) (* ?x2072 |v4:7|)) ?x141) 8.0)))
 (let (($x712 (and (and (and $x1631 $x2851) (and $x1568 $x112)) (and (and $x3321 $x1375) (and $x1529 (<= ?x2099 12.0))))))
 (let (($x1832 (and (and (and $x712 $x746) (and $x2191 $x1657)) (and (and $x72 $x1969) (and $x156 $x1807)))))
 (let (($x1161 (not (= |v0:11_st| (RMk1 val!6075)))))
 (let (($x1272 (not (= |v1:10_st| (RMk1 val!6074)))))
 (let (($x1346 (not (= |v2:9_st| (RMk1 val!6073)))))
 (let (($x2005 (not (= |v3:8_st| (RMk1 val!6072)))))
 (let (($x1367 (not (= |v8:3_st| (RMk1 val!6071)))))
 (let (($x3058 (not (= |v9:2_st| (RMk1 val!6070)))))
 (let (($x1294 (not (= |v10:1_st| (RMk1 val!6069)))))
 (let (($x2915 (not (= |v11:0_st| (RMk1 val!6068)))))
 (and $x2915 $x1294 $x3058 $x1367 $x2005 $x1346 $x1272 $x1161 $x1832)))))))))))))))))))))))))))))))))))))))))))))))))))))))))))))))))))))))))))))))))))))))))))))))))))))))))))))))))))))))))))))))))))))))))))))))))))))
 )
 )
 )
 )
 )
 )
 )
 )
 )
 )
 )
 )
(check-sat)
